p cnf 10 50
9 -10 7 0
8 -9 4 0
-9 5 -2 0
-4 9 -7 0
7 3 -10 0
-5 10 -9 0
9 1 -6 0
-6 2 3 0
-3 2 -4 0
-3 9 -6 0
-10 6 8 0
2 7 -9 0
-5 -1 -8 0
-8 -10 -3 0
-8 9 -6 0
6 -4 -10 0
-1 -6 2 0
-5 6 9 0
3 -1 -8 0
9 7 -3 0
-6 -1 -8 0
-1 10 5 0
-10 6 -2 0
-6 -7 4 0
-9 -8 -6 0
3 -5 -1 0
8 2 -3 0
8 -4 9 0
2 6 1 0
-7 4 -6 0
-9 6 -2 0
3 8 -9 0
8 -4 10 0
-7 4 -1 0
2 -9 -6 0
3 -4 2 0
5 -3 4 0
5 6 8 0
-6 1 5 0
-5 -1 9 0
3 -1 -6 0
-2 7 -8 0
10 8 1 0
9 6 -3 0
-9 -8 4 0
-3 7 10 0
2 -3 1 0
-7 1 6 0
-8 9 5 0
-1 3 -5 0
